
Log started (V22.1.1.0) Thu Apr 11 10:53:38 2024

New value for mixed integer optimality gap tolerance: 0.0002
New value for time limit in seconds: 14400
New value for integrality tolerance: 0
New value for feasibility tolerance: 1e-08

Problem '/tmp/224235.1.RCCS/tmp2uky0o9_.pyomo.lp' read.
Read time = 0.31 sec. (24.50 ticks)

Problem name         : /tmp/224235.1.RCCS/tmp2uky0o9_.pyomo.lp
Objective sense      : Minimize
Variables            :  136479  [Nneg: 1,  Box: 129478,  Binary: 112,
                                 General Integer: 6888]
Objective nonzeros   :       2
Linear constraints   :  290096  [Less: 143413,  Greater: 13528,  Equal: 133155]
  Nonzeros           :  510579
  RHS nonzeros       :   13525

Variables            : Min LB: 0.000000         Max UB: 1.000000e+10   
Objective nonzeros   : Min   : 0.1187400        Max   : 1.000000       
Linear constraints   :
  Nonzeros           : Min   : 0.02000000       Max   : 2388153.       
  RHS nonzeros       : Min   : 1.000000         Max   : 8.710684e+08   
Version identifier: 22.1.1.0 | 2022-11-28 | 9160aff4d
CPXPARAM_Simplex_Tolerances_Feasibility          1e-08
CPXPARAM_TimeLimit                               14400
CPXPARAM_MIP_Tolerances_MIPGap                   0.00020000000000000001
CPXPARAM_MIP_Tolerances_Integrality              0
Tried aggregator 2 times.
MIP Presolve eliminated 282904 rows and 125882 columns.
MIP Presolve modified 1603 coefficients.
Aggregator did 3602 substitutions.
Reduced MIP has 3590 rows, 6995 columns, and 24286 nonzeros.
Reduced MIP has 3430 binaries, 68 generals, 0 SOSs, and 0 indicators.
Presolve time = 0.17 sec. (222.26 ticks)
Found incumbent of value 2.0055848e+07 after 0.20 sec. (263.34 ticks)
Probing time = 0.09 sec. (78.39 ticks)
Tried aggregator 1 time.
Detecting symmetries...
MIP Presolve eliminated 26 rows and 24 columns.
MIP Presolve modified 134 coefficients.
Reduced MIP has 3564 rows, 6971 columns, and 24194 nonzeros.
Reduced MIP has 3430 binaries, 68 generals, 0 SOSs, and 0 indicators.
Presolve time = 0.02 sec. (17.70 ticks)
Probing time = 0.02 sec. (6.90 ticks)
Clique table members: 23.
MIP emphasis: balance optimality and feasibility.
MIP search method: dynamic search.
Parallel mode: deterministic, using up to 32 threads.
Root relaxation solution time = 0.12 sec. (128.23 ticks)

        Nodes                                         Cuts/
   Node  Left     Objective  IInf  Best Integer    Best Bound    ItCnt     Gap

*     0+    0                       2.00558e+07        0.0000           100.00%
      0     0   133445.1224     8   2.00558e+07   133445.1224     2185   99.33%
*     0+    0                       229847.3428   133445.1224            41.94%
*     0+    0                       183617.7376   133445.1224            27.32%
      0     0   138095.2873    15   183617.7376      Cuts: 11     2291   24.79%
      0     0   138433.6423    20   183617.7376      Cuts: 20     2313   24.61%
*     0+    0                       170628.9552   138433.6423            18.87%
*     0+    0                       161979.1956   138433.6423            14.54%
*     0+    0                       160869.7566   138433.6423            13.95%
      0     0  -1.00000e+75     0   160869.7566   138433.6423     2313   13.95%
Detecting symmetries...

Repeating presolve.
Tried aggregator 2 times.
MIP Presolve eliminated 2935 rows and 5857 columns.
MIP Presolve modified 48 coefficients.
Aggregator did 15 substitutions.
Reduced MIP has 614 rows, 1099 columns, and 3703 nonzeros.
Reduced MIP has 507 binaries, 60 generals, 0 SOSs, and 0 indicators.
Presolve time = 0.01 sec. (7.19 ticks)
Probing fixed 0 vars, tightened 84 bounds.
Probing time = 0.02 sec. (17.53 ticks)
Cover probing fixed 0 vars, tightened 142 bounds.
Tried aggregator 1 time.
Detecting symmetries...
MIP Presolve modified 67 coefficients.
Reduced MIP has 614 rows, 1099 columns, and 3703 nonzeros.
Reduced MIP has 507 binaries, 60 generals, 0 SOSs, and 0 indicators.
Presolve time = 0.00 sec. (2.52 ticks)
Represolve time = 0.07 sec. (93.65 ticks)
Probing fixed 0 vars, tightened 100 bounds.
Probing time = 0.02 sec. (16.64 ticks)
Cover probing fixed 0 vars, tightened 16 bounds.
Clique table members: 66.
MIP emphasis: balance optimality and feasibility.
MIP search method: dynamic search.
Parallel mode: deterministic, using up to 32 threads.
Root relaxation solution time = 0.03 sec. (18.39 ticks)

        Nodes                                         Cuts/
   Node  Left     Objective  IInf  Best Integer    Best Bound    ItCnt     Gap

*     0+    0                       160869.7566   138433.6423            13.95%
      0     0   138791.0195    17   160869.7566   138791.0195     3148   13.72%
      0     0   141544.8837    16   160869.7566      Cuts: 13     3177   12.01%
      0     0   142759.5424    22   160869.7566      Cuts: 22     3216   11.26%
      0     0   143089.0472    27   160869.7566      Cuts: 18     3253   11.05%
      0     0   143303.5008    21   160869.7566      Cuts: 14     3286   10.92%
*     0+    0                       155794.1258   143303.5008             8.02%
      0     0   143455.9047    17   155794.1258      Cuts: 18     3346    7.92%
Detecting symmetries...

Repeating presolve.
Tried aggregator 2 times.
MIP Presolve eliminated 237 rows and 460 columns.
MIP Presolve modified 64 coefficients.
Aggregator did 8 substitutions.
Reduced MIP has 369 rows, 631 columns, and 2112 nonzeros.
Reduced MIP has 286 binaries, 40 generals, 0 SOSs, and 0 indicators.
Presolve time = 0.00 sec. (2.42 ticks)
Probing fixed 7 vars, tightened 77 bounds.
Probing changed sense of 1 constraints.
Probing time = 0.01 sec. (5.02 ticks)
Cover probing fixed 0 vars, tightened 77 bounds.
Tried aggregator 1 time.
MIP Presolve eliminated 7 rows and 14 columns.
MIP Presolve modified 54 coefficients.
Reduced MIP has 362 rows, 617 columns, and 2062 nonzeros.
Reduced MIP has 279 binaries, 40 generals, 0 SOSs, and 0 indicators.
Presolve time = 0.00 sec. (1.28 ticks)
Probing fixed 0 vars, tightened 67 bounds.
Probing time = 0.01 sec. (5.15 ticks)
Cover probing fixed 0 vars, tightened 72 bounds.
Tried aggregator 2 times.
Detecting symmetries...
MIP Presolve modified 61 coefficients.
Aggregator did 2 substitutions.
Reduced MIP has 360 rows, 615 columns, and 2058 nonzeros.
Reduced MIP has 279 binaries, 40 generals, 0 SOSs, and 0 indicators.
Presolve time = 0.00 sec. (1.87 ticks)
Represolve time = 0.08 sec. (114.20 ticks)
Probing fixed 0 vars, tightened 24 bounds.
Probing time = 0.00 sec. (4.01 ticks)
Clique table members: 17.
MIP emphasis: balance optimality and feasibility.
MIP search method: dynamic search.
Parallel mode: deterministic, using up to 32 threads.
Root relaxation solution time = 0.01 sec. (8.48 ticks)

        Nodes                                         Cuts/
   Node  Left     Objective  IInf  Best Integer    Best Bound    ItCnt     Gap

*     0+    0                       155794.1258   143455.9047             7.92%
      0     0   143455.9047    17   155794.1258   143455.9047     3796    7.92%
      0     0   143883.5988    23   155794.1258      Cuts: 16     3815    7.65%
      0     0   144181.1361    19   155794.1258      Cuts: 28     3847    7.45%
      0     0   144447.9803    27   155794.1258      Cuts: 19     3888    7.28%
      0     0   144856.0387    26   155794.1258      Cuts: 20     3927    7.02%
      0     0   145307.9790    29   155794.1258      Cuts: 19     3963    6.73%
      0     0   146133.3818    31   155794.1258      Cuts: 28     4034    6.20%
*     0+    0                       154902.3607   146133.3818             5.66%
*     0+    0                       154824.3607   146133.3818             5.61%
      0     0   147259.9476    21   154824.3607      Cuts: 21     4095    3.98%
      0     0   148361.5708    16   154824.3607      Cuts: 23     4163    3.98%
      0     0   148690.3221    17   154824.3607      Cuts: 28     4202    3.96%
      0     0   148749.6668    23   154824.3607       Cuts: 5     4217    3.92%
      0     0   148769.6776    24   154824.3607       Cuts: 7     4231    3.91%
      0     0   148810.9901    20   154824.3607       Cuts: 4     4234    3.88%
      0     0   149090.6923    11   154824.3607       Cuts: 8     4246    3.70%
      0     0   149090.8499    11   154824.3607       Cuts: 4     4250    3.70%
*     0+    0                       154669.4274   149090.8499             3.61%
Detecting symmetries...
      0     2   149090.8499    11   154669.4274   149090.8499     4250    3.61%
Elapsed time = 3.96 sec. (2026.27 ticks, tree = 0.02 MB, solutions = 10)

GUB cover cuts applied:  2
Clique cuts applied:  1
Cover cuts applied:  28
Implied bound cuts applied:  40
Flow cuts applied:  44
Mixed integer rounding cuts applied:  17
Zero-half cuts applied:  6
Lift and project cuts applied:  15
Gomory fractional cuts applied:  1

Root node processing (before b&c):
  Real time             =    3.56 sec. (2035.18 ticks)
Parallel b&c, 32 threads:
  Real time             =    0.64 sec. (72.71 ticks)
  Sync time (average)   =    0.15 sec.
  Wait time (average)   =    0.00 sec.
                          ------------
Total (root+branch&cut) =    4.20 sec. (2107.89 ticks)

Solution pool: 10 solutions saved.

MIP - Integer optimal, tolerance (0.0002/1e-06):  Objective =  1.5466942738e+05
Current MIP best bound =  1.5464431389e+05 (gap = 25.1135, 0.02%)
Solution time =    4.21 sec.  Iterations = 19664  Nodes = 1045 (4)
Deterministic time = 2108.28 ticks  (500.90 ticks/sec)


Incumbent solution written to file '/tmp/224235.1.RCCS/tmpl0kaxs9m.cplex.sol'.
